1
4
10
14
15
16
17
13
11
103
102
100
83
82
79
75
70
53
52
23
21
19
8
7
6
128
127
2
3
5
9
12
18
20
25
28
30
32
34
36
35
33
31
29
126
125
124
123
122
121
107
106
104
99
98
88
86
61
59
56
55
54
51
50
49
42
43
44
48
47
46
45
41
40
39
38
37
27
26
24
22
120
118
105
101
97
96
94
93
92
90
91
108
109
113
114
117
116
115
112
111
110
73
72
71
69
68
66
65
64
63
60
58
57
62
67
74
76
77
78
80
81
84
85
87
89
95
119
1
